interface IFrontCamera {
    out void CarDetected();
    out void CarPassed();
    enum State {Detected, NotDetected};

    behavior {
        State state = State.NotDetected;

        on inevitable: {
            state = State.Detected;
            CarDetected;
        }
        on inevitable: {
            state = State.NotDetected;
            CarPassed;
        }
    }
}

